// --------------------------------------------------------------------------

nbJobs = 8;
nbMchs = 6;

OpDurations = [
[1, 3, 4, 2, 8, 1] 
[4, 5, 7, 1, 3, 4]
[4, 5, 7, 2, 8, 1]
[4, 5, 7, 1, 3, 4]
[4, 5, 7, 2, 8, 1]
[1, 3, 4, 2, 8, 1] 
[4, 5, 7, 1, 3, 4]
[4, 5, 7, 2, 8, 1]
];

// --------------------------------------------------------------------------
